\ENCODING=ISO-8859-1
\Problem name: ilog.cplex

Minimize
 obj: 1.84 x1 + 2.19 x3 + 1.84 x5 + 1.44 x7 + 2.29 x9 + 0.77 x11 + 1.29 x13 + 0.6 x15 + 0.72 x17 

Subject To
 c1:  510 x1 + 370 x3 + 500 x5 + 370 x7 + 400 x9 + 220 x11 + 345 x13 + 110 x15 + 80  x17 - Rgc1   =  2000
 c1:  34  x1 + 35  x3 + 42  x5 + 38  x7 + 42  x9 + 26  x11 + 27  x13 + 12  x15 + 20  x17 - Rgc1   =  350
 c3:  28  x1 + 24  x3 + 25  x5 + 14  x7 + 31  x9 + 3   x11 + 15  x13 + 9   x15 +     x17 - Rgc3   =  55
 c5:  15  x1 + 15  x3 + 6   x5 + 2   x7 + 8   x9 + 4       +     x13 + 10  x15 + 2   x17 - Rgc5   =  100
 c7:  6   x1 + 10  x3 + 2   x5 +        + 15  x9 + 15  x11 +         + 4   x15 + 120 x17 - Rgc7   =  100
 c9:  30  x1 + 20  x3 + 25  x5 + 15 x7  + 15  x9 +         + 20  x13 + 30  x15 + 2   x17 - Rgc9   =  100
 c11: 20  x1 + 20  x3 + 20  x5 + 10 x7  + 8   x9 + 2   x11 + 15  x13 +         + 2   x17 - Rgc11  =  100

Bounds
 0 <= x1    <= 10
 0 <= x3    <= 10
 0 <= x5    <= 10
 0 <= x7    <= 10
 0 <= x9    <= 10
 0 <= x11   <= 10
 0 <= x13   <= 10
 0 <= x15   <= 10
 0 <= x17   <= 10
 0 <= Rgc1  <= 7999
 0 <= Rgc1  <= 25
 0 <= Rgc3  <= 9944
 0 <= Rgc5  <= 9899
 0 <= Rgc7  <= 9899
 0 <= Rgc9  <= 9899
 0 <= Rgc11 <= 9899
End
